  9	63
 12
  0	  1	 55	 64	 52	  3	115	 66	118	 22	 85	127	
 12
  0	 24	 14	 50	 87	 77	 10	 73	 23	113	 86	127	
 14
  0	 63	 19	126	 43	 40	 82	103	106	 27	 90	 18	 81	127	
 22
  0	 39	 42	 53	105	 59	102	 13	122	 76	116	  9	 45	  6	 28	 69	 60	 91	 72	108	123	127	
 12
  0	 30	  2	 11	 25	 93	 74	 44	107	 65	 88	127	
 22
  0	 35	 56	 48	 98	111	 15	 38	101	119	 20	 33	 78	 32	 95	 29	 26	 83	 92	 96	 89	127	
 14
  0	 54	 41	 17	104	 12	 80	117	 51	 75	114	 47	110	127	
 16
  0	 57	 36	 49	 99	 31	120	 16	 94	  8	 79	 46	112	109	 71	127	
 20
  0	  4	  5	 37	 67	 34	100	 97	 68	 21	 61	124	 58	 84	121	  7	 70	 62	125	127	
